Minimize
r
Subject to
  xAX1 + xAY1 + xAZ1 = 40
  xAX2 + xAY2 + xAZ2 = 30
  xAX3 + xAY3 + xAZ3 = 20
  xAX4 + xAY4 + xAZ4 = 10
  xBX1 + xBY1 + xBZ1 = 10
  xBX2 + xBY2 + xBZ2 = 60
  xBX3 + xBY3 + xBZ3 = 20
  xBX4 + xBY4 + xBZ4 = 40
  xCX1 + xCY1 + xCZ1 = 20
  xCX2 + xCY2 + xCZ2 = 20
  xCX3 + xCY3 + xCZ3 = 20
  xCX4 + xCY4 + xCZ4 = 20
  xDX1 + xDY1 + xDZ1 = 70
  xDX2 + xDY2 + xDZ2 = 30
  xDX3 + xDY3 + xDZ3 = 50
  xDX4 + xDY4 + xDZ4 = 10
  xAX1 + xAX2 + xAX3 + xAX4 - yAX = 0
  xAY1 + xAY2 + xAY3 + xAY4 - yAY = 0
  xAZ1 + xAZ2 + xAZ3 + xAZ4 - yAZ = 0
  xBX1 + xBX2 + xBX3 + xBX4 - yBX = 0
  xBY1 + xBY2 + xBY3 + xBY4 - yBY = 0
  xBZ1 + xBZ2 + xBZ3 + xBZ4 - yBZ = 0
  xCX1 + xCX2 + xCX3 + xCX4 - yCX = 0
  xCY1 + xCY2 + xCY3 + xCY4 - yCY = 0
  xCZ1 + xCZ2 + xCZ3 + xCZ4 - yCZ = 0
  xDX1 + xDX2 + xDX3 + xDX4 - yDX = 0
  xDY1 + xDY2 + xDY3 + xDY4 - yDY = 0
  xDZ1 + xDZ2 + xDZ3 + xDZ4 - yDZ = 0
  xAX1 + xBX1 + xCX1 + xDX1 - yX1 <= 0
  xAX2 + xBX2 + xCX2 + xDX2 - yX2 <= 0
  xAX3 + xBX3 + xCX3 + xDX3 - yX3 <= 0
  xAX4 + xBX4 + xCX4 + xDX4 - yX4 <= 0
  xAY1 + xBY1 + xCY1 + xDY1 - yY1 <= 0
  xAY2 + xBY2 + xCY2 + xDY2 - yY2 <= 0
  xAY3 + xBY3 + xCY3 + xDY3 - yY3 <= 0
  xAY4 + xBY4 + xCY4 + xDY4 - yY4 <= 0
  xAZ1 + xBZ1 + xCZ1 + xDZ1 - yZ1 <= 0
  xAZ2 + xBZ2 + xCZ2 + xDZ2 - yZ2 <= 0
  xAZ3 + xBZ3 + xCZ3 + xDZ3 - yZ3 <= 0
  xAZ4 + xBZ4 + xCZ4 + xDZ4 - yZ4 <= 0
  yAX <= 100
  yAY <= 100
  yAZ <= 100
  yBX <= 100
  yBY <= 100
  yBZ <= 100
  yCX <= 100
  yCY <= 100
  yCZ <= 100
  yDX <= 100
  yDY <= 100
  yDZ <= 100
  yX1 <= 100
  yX2 <= 100
  yX3 <= 100
  yX4 <= 100
  yY1 <= 100
  yY2 <= 100
  yY3 <= 100
  yY4 <= 100
  yZ1 <= 100
  yZ2 <= 100
  yZ3 <= 100
  yZ4 <= 100
  xAX1 + xAX2 + xAX3 + xAX4 + xBX1 + xBX2 + xBX3 + xBX4 + xCX1 + xCX2 + xCX3 + xCX4 + xDX1 + xDX2 + xDX3 + xDX4 + yAX + yBX + yCX + yDX + yX1 + yX2 + yX3 + yX4 - 100r <= 0
  xAY1 + xAY2 + xAY3 + xAY4 + xBY1 + xBY2 + xBY3 + xBY4 + xCY1 + xCY2 + xCY3 + xCY4 + xDY1 + xDY2 + xDY3 + xDY4 + yAY + yBY + yCY + yDY + yY1 + yY2 + yY3 + yY4 - 100r <= 0
  xAZ1 + xAZ2 + xAZ3 + xAZ4 + xBZ1 + xBZ2 + xBZ3 + xBZ4 + xCZ1 + xCZ2 + xCZ3 + xCZ4 + xDZ1 + xDZ2 + xDZ3 + xDZ4 + yAZ + yBZ + yCZ + yDZ + yZ1 + yZ2 + yZ3 + yZ4 - 100r <= 0
Bounds
  yAX >= 0
  yAY >= 0
  yAZ >= 0
  yBX >= 0
  yBY >= 0
  yBZ >= 0
  yCX >= 0
  yCY >= 0
  yCZ >= 0
  yDX >= 0
  yDY >= 0
  yDZ >= 0
  yX1 >= 0
  yX2 >= 0
  yX3 >= 0
  yX4 >= 0
  yY1 >= 0
  yY2 >= 0
  yY3 >= 0
  yY4 >= 0
  yZ1 >= 0
  yZ2 >= 0
  yZ3 >= 0
  yZ4 >= 0
  xAX1 >= 0
  xAX2 >= 0
  xAX3 >= 0
  xAX4 >= 0
  xAY1 >= 0
  xAY2 >= 0
  xAY3 >= 0
  xAY4 >= 0
  xAZ1 >= 0
  xAZ2 >= 0
  xAZ3 >= 0
  xAZ4 >= 0
  xBX1 >= 0
  xBX2 >= 0
  xBX3 >= 0
  xBX4 >= 0
  xBY1 >= 0
  xBY2 >= 0
  xBY3 >= 0
  xBY4 >= 0
  xBZ1 >= 0
  xBZ2 >= 0
  xBZ3 >= 0
  xBZ4 >= 0
  xCX1 >= 0
  xCX2 >= 0
  xCX3 >= 0
  xCX4 >= 0
  xCY1 >= 0
  xCY2 >= 0
  xCY3 >= 0
  xCY4 >= 0
  xCZ1 >= 0
  xCZ2 >= 0
  xCZ3 >= 0
  xCZ4 >= 0
  xDX1 >= 0
  xDX2 >= 0
  xDX3 >= 0
  xDX4 >= 0
  xDY1 >= 0
  xDY2 >= 0
  xDY3 >= 0
  xDY4 >= 0
  xDZ1 >= 0
  xDZ2 >= 0
  xDZ3 >= 0
  xDZ4 >= 0
  r >= 0
End
